p cnf 10 50
3 -9 -8 0
8 2 -1 0
-2 3 1 0
-6 9 2 0
8 10 1 0
9 1 4 0
-3 -5 1 0
-5 -1 9 0
8 -4 -7 0
6 -5 10 0
-6 -4 3 0
-5 -7 8 0
-6 3 5 0
-9 -2 -5 0
-1 -2 -10 0
1 -4 -3 0
1 10 3 0
-6 1 8 0
4 -7 -5 0
-9 7 -6 0
4 10 8 0
1 4 -9 0
9 -8 10 0
-5 -10 -9 0
-8 3 6 0
-6 -2 -3 0
5 10 -1 0
4 -2 3 0
5 4 -2 0
5 -9 -1 0
8 -7 2 0
7 8 -1 0
2 10 9 0
2 -9 1 0
-7 3 -1 0
3 5 8 0
-7 -5 -1 0
-5 6 -2 0
7 -9 -8 0
2 -3 -10 0
-2 -4 -9 0
4 9 -10 0
1 8 4 0
3 10 4 0
-8 -1 -4 0
-6 -1 -8 0
-1 4 -9 0
-8 2 -3 0
9 -4 -10 0
-10 7 9 0